c turning on binary mode checking
c parsing input formula with 259840 variables and 1039924 clauses
c finished parsing, read 28415546 bytes from proof file
c detected empty clause; start verification via backward checking
c 31295 of 1039924 clauses in core                            
c 46607 of 672415 lemmas in core using 357675 resolution steps
c 0 RAT lemmas in core; 3598 redundant literals in core lemmas
s VERIFIED
c verification time: 3.800 seconds
